\* Moc_na_mostku *\
Minimize
OBJ: 6 I1 + 10 I2 + 4 I3 + 7 I4 + 3 I5
Subject To
_C1: I1 - I3 - I4 = 0
_C10: I4 <= 3
_C11: I5 >= 3
_C12: I5 <= 5
_C2: I2 + I3 - I5 = 0
_C3: I1 >= 3
_C4: I1 <= 5
_C5: I2 >= 1
_C6: I2 <= 3
_C7: I3 >= 1
_C8: I3 <= 3
_C9: I4 >= 1
End
